
Gurobi 7.0.2 (linux64, Python) logging started Wed May 10 10:15:12 2017


Gurobi 7.0.2 (linux64, Python) logging started Wed May 10 10:15:29 2017


Gurobi 7.0.2 (linux64, Python) logging started Wed May 10 10:15:53 2017


Gurobi 7.0.2 (linux64, Python) logging started Wed May 10 10:17:04 2017


Gurobi 7.0.2 (linux64, Python) logging started Wed May 10 10:17:13 2017


Gurobi 7.0.2 (linux64, Python) logging started Wed May 10 10:17:47 2017


Gurobi 7.0.2 (linux64, Python) logging started Wed May 10 10:42:56 2017


Gurobi 7.0.2 (linux64, Python) logging started Wed May 10 10:45:00 2017


Gurobi 7.0.2 (linux64, Python) logging started Wed May 10 10:45:35 2017


Gurobi 7.0.2 (linux64, Python) logging started Wed May 10 10:47:58 2017


Gurobi 7.0.2 (linux64, Python) logging started Wed May 10 10:50:32 2017

